  ABO3  
1.0
        8.0000000000         0.0000000000         0.0000000000
        0.0000000000         8.0000000000         0.0000000000
        0.0000000000         0.0000000000         8.0000000000
   Ba   Ti    O
    8    8   24
Direct
     0.000000000         0.000000000         0.000000000
     0.500000000         0.000000000         0.000000000
     0.000000000         0.500000000         0.000000000
     0.500000000         0.500000000         0.000000000
     0.000000000         0.000000000         0.500000000
     0.500000000         0.000000000         0.500000000
     0.000000000         0.500000000         0.500000000
     0.500000000         0.500000000         0.500000000
     0.250000000         0.250000000         0.250000000
     0.750000000         0.250000000         0.250000000
     0.250000000         0.750000000         0.250000000
     0.750000000         0.750000000         0.250000000
     0.250000000         0.250000000         0.750000000
     0.750000000         0.250000000         0.750000000
     0.250000000         0.750000000         0.750000000
     0.750000000         0.750000000         0.750000000
     0.250000000         0.250000000         0.000000000
     0.750000000         0.250000000         0.000000000
     0.250000000         0.750000000         0.000000000
     0.750000000         0.750000000         0.000000000
     0.250000000         0.250000000         0.500000000
     0.750000000         0.250000000         0.500000000
     0.250000000         0.750000000         0.500000000
     0.750000000         0.750000000         0.500000000
     0.250000000         0.000000000         0.250000000
     0.750000000         0.000000000         0.250000000
     0.250000000         0.500000000         0.250000000
     0.750000000         0.500000000         0.250000000
     0.250000000         0.000000000         0.750000000
     0.750000000         0.000000000         0.750000000
     0.250000000         0.500000000         0.750000000
     0.750000000         0.500000000         0.750000000
     0.000000000         0.250000000         0.250000000
     0.500000000         0.250000000         0.250000000
     0.000000000         0.750000000         0.250000000
     0.500000000         0.750000000         0.250000000
     0.000000000         0.250000000         0.750000000
     0.500000000         0.250000000         0.750000000
     0.000000000         0.750000000         0.750000000
     0.500000000         0.750000000         0.750000000
